% demand
num_movements = 21;
loading_factor = [800, 1000, 1550, 1200, 1100, 1050, 1000, 1300, 1950, 1450, 1400, 2000, 1350, 800, 1600, 2000, 1700, 1700, 1750, 900, 2000];
pickup_time = [0, 0, 1, 2, 2, 2, 2, 2, 3, 6, 6, 6, 6, 7, 8, 9, 9, 9, 10, 10, 10];
delivery_time = [2, 2, 2, 6, 6, 6, 6, 3, 6, 9, 8, 9, 8, 9, 9, 10, 11, 10, 11, 11, 11];

% transporter definition
total_capacity = 7000;
num_decks = 3;
capacity = [3000, 1000, 3000];

% ways out of decks
num_ways_out = 1;
paths_out = array3d(decks, ways_out, decks, [
% ways out of deck d1
2, 3, 0, 

% ways out of deck d2
3, 0, 0, 

% ways out of deck d3
0, 0, 0,	

]);

